#Lammps input file generated by ForcePy

units 		real
timestep    1.0
atom_style  full
read_data   data.lammps

pair_style  table linear 10000

pair_coeff  1 1 cg_force_pair.table SF_Pairwise_CIS_CIS 15
pair_coeff  1 2 cg_force_pair.table SF_Pairwise_CIS_TRANS 15
pair_coeff  2 2 cg_force_pair.table SF_Pairwise_TRANS_TRANS 15

velocity    all create 300.0 2374323

fix	    1 all nvt temp 300.0 300.0 100.0
fix	    2 all mdi
thermo      1
thermo_style custom step temp ke pe etotal
mdi
