##############################henm cg simulation##################################
clear

#Initialization
#-----------------------------

units   	    real
dimension       3
atom_style      full
boundary        p p p

#------------------------------------------
#ForceField Initialization

pair_style      hybrid lj/cut 12 table linear 10000
pair_modify 	shift yes
bond_style	    harmonic
neigh_modify    page 500000 one 20000

#Atom Definition
#-------------------------


read_data       data.lammps

pair_coeff		1 1 lj/cut 0.5 2.5
pair_coeff		2 2 lj/cut 0.5 2.5
pair_coeff		3 3 lj/cut 0.5 2.5
pair_coeff		4 4 lj/cut 0.5 2.5
pair_coeff		1 3*4 lj/cut 0.5 2.5
pair_coeff		2 3*4 lj/cut 0.5 2.5
pair_coeff		1*4 5 lj/cut 0.5 2.5
pair_coeff		1*4 6 lj/cut 0.5 2.5
pair_coeff 		5 5 table cg_force_pair.table SF_Pairwise_CIS_CIS 15
pair_coeff 		5 6 table cg_force_pair.table SF_Pairwise_CIS_TRANS 15
pair_coeff 		6 6 table cg_force_pair.table SF_Pairwise_TRANS_TRANS 15


bond_coeff		1 100 1
bond_coeff 		2 100 1.1


#Simulation Parameters
#-----------------------------

timestep 		1
run_style		verlet


# Equilibrate
#-----------------------

group			Type1 type 1 2
group			Type2 type 3 4

reset_timestep	0


fix             UCG all ucg_gfrd 2222 Beta 1.62345 nspecies 2 nstates 2 2 speciesbeads 2 1 aoffset 2 1 boffset 1 0 rates rates.in mhcorr mhcorr.in restrictmol restrictmol.in

fix 			3 all langevin 310.0 310.0 1000.0 1234
fix			2 all mdi
compute 		temp1 all temp
thermo_style    custom step temp press pe evdwl ecoul ebond eangle ke etotal enthalpy cpu
thermo_modify 	temp temp1 format 3 %15.8g
thermo   		1
thermo_style		custom step temp ke pe etotal 
fix 			1 all nve
#run				10
mdi
